Set parameter TokenServer to value "hpc-licenses.hpcc.usc.edu"
Set parameter TimeLimit to value 3600
Gurobi Optimizer version 9.5.1 build v9.5.1rc2 (linux64)
Thread count: 20 physical cores, 20 logical processors, using up to 20 threads
Optimize a model with 6007 rows, 4529 columns and 24534 nonzeros
Model fingerprint: 0x4e0c7b89
Variable types: 4506 continuous, 23 integer (23 binary)
Coefficient statistics:
  Matrix range     [1e+00, 1e+00]
  Objective range  [2e-03, 1e+00]
  Bounds range     [1e+00, 1e+00]
  RHS range        [1e+00, 2e+01]
Found heuristic solution: objective 255.9313429
Presolve removed 1514 rows and 1511 columns
Presolve time: 0.07s
Presolved: 4493 rows, 3018 columns, 21993 nonzeros
Variable types: 2998 continuous, 20 integer (20 binary)

Root relaxation: objective 2.594914e+02, 2118 iterations, 0.08 seconds (0.06 work units)

    Nodes    |    Current Node    |     Objective Bounds      |     Work
 Expl Unexpl |  Obj  Depth IntInf | Incumbent    BestBd   Gap | It/Node Time

     0     0  259.49137    0    3  255.93134  259.49137  1.39%     -    0s
     0     0  258.94523    0    3  255.93134  258.94523  1.18%     -    0s
     0     0  258.67838    0    5  255.93134  258.67838  1.07%     -    0s
H    0     0                     257.4231940  258.67838  0.49%     -    0s
     0     0  258.07785    0    5  257.42319  258.07785  0.25%     -    0s
     0     0  258.07785    0    3  257.42319  258.07785  0.25%     -    0s
     0     0  258.07785    0    5  257.42319  258.07785  0.25%     -    1s
     0     0  258.07785    0    6  257.42319  258.07785  0.25%     -    1s

Cutting planes:
  Gomory: 8
  Implied bound: 2
  MIR: 281
  Flow cover: 3
  RLT: 12
  Relax-and-lift: 5

Explored 1 nodes (4357 simplex iterations) in 1.33 seconds (0.51 work units)
Thread count was 20 (of 20 available processors)

Solution count 2: 257.423 255.931 

Optimal solution found (tolerance 1.00e-04)
Best objective 2.574231940029e+02, best bound 2.574231940029e+02, gap 0.0000%



#########node  1
V1.9
#########node  2
0.5283018867924529,0.471698113207547
#########node  3
1.0,0.0


Total Solving Time 1.7995316982269287
obj value 257.4231940029141
Policy Regret train (Sum) 4.688848731973859
Best Treatment Found train (%) 79.4
treatment classification acc train (%) 50.8
Policy Regret test (Sum) 222.40112135659427
Best Treatment Found test (%) 50.370000000000005
treatment classification acc test (%) 49.730000000000004
